NAME : data_12_4_tsptw.tsptw.8397.tour
COMMENT : Length = 8397
COMMENT : Found by LKH [Keld Helsgaun] Wed Feb  5 11:14:24 2020
TYPE : TOUR
DIMENSION : 13
TOUR_SECTION
1
3
5
8
12
2
11
6
10
9
7
4
13
-1
EOF
